c Pigeonhole principle formula for 10 pigeons and 15 holes
c Generated with `cnfgen`
c (C) 2012-2018 Massimo Lauria <lauria.massimo@gmail.com>
c https://massimolauria.github.io/cnfgen
c
c COMMAND LINE: cnfgen php 10 15
c
p cnf 150 685
1 2 3 4 5 6 7 8 9 10 11 12 13 14 15 0
16 17 18 19 20 21 22 23 24 25 26 27 28 29 30 0
31 32 33 34 35 36 37 38 39 40 41 42 43 44 45 0
46 47 48 49 50 51 52 53 54 55 56 57 58 59 60 0
61 62 63 64 65 66 67 68 69 70 71 72 73 74 75 0
76 77 78 79 80 81 82 83 84 85 86 87 88 89 90 0
91 92 93 94 95 96 97 98 99 100 101 102 103 104 105 0
106 107 108 109 110 111 112 113 114 115 116 117 118 119 120 0
121 122 123 124 125 126 127 128 129 130 131 132 133 134 135 0
136 137 138 139 140 141 142 143 144 145 146 147 148 149 150 0
-1 -16 0
-1 -31 0
-1 -46 0
-1 -61 0
-1 -76 0
-1 -91 0
-1 -106 0
-1 -121 0
-1 -136 0
-16 -31 0
-16 -46 0
-16 -61 0
-16 -76 0
-16 -91 0
-16 -106 0
-16 -121 0
-16 -136 0
-31 -46 0
-31 -61 0
-31 -76 0
-31 -91 0
-31 -106 0
-31 -121 0
-31 -136 0
-46 -61 0
-46 -76 0
-46 -91 0
-46 -106 0
-46 -121 0
-46 -136 0
-61 -76 0
-61 -91 0
-61 -106 0
-61 -121 0
-61 -136 0
-76 -91 0
-76 -106 0
-76 -121 0
-76 -136 0
-91 -106 0
-91 -121 0
-91 -136 0
-106 -121 0
-106 -136 0
-121 -136 0
-2 -17 0
-2 -32 0
-2 -47 0
-2 -62 0
-2 -77 0
-2 -92 0
-2 -107 0
-2 -122 0
-2 -137 0
-17 -32 0
-17 -47 0
-17 -62 0
-17 -77 0
-17 -92 0
-17 -107 0
-17 -122 0
-17 -137 0
-32 -47 0
-32 -62 0
-32 -77 0
-32 -92 0
-32 -107 0
-32 -122 0
-32 -137 0
-47 -62 0
-47 -77 0
-47 -92 0
-47 -107 0
-47 -122 0
-47 -137 0
-62 -77 0
-62 -92 0
-62 -107 0
-62 -122 0
-62 -137 0
-77 -92 0
-77 -107 0
-77 -122 0
-77 -137 0
-92 -107 0
-92 -122 0
-92 -137 0
-107 -122 0
-107 -137 0
-122 -137 0
-3 -18 0
-3 -33 0
-3 -48 0
-3 -63 0
-3 -78 0
-3 -93 0
-3 -108 0
-3 -123 0
-3 -138 0
-18 -33 0
-18 -48 0
-18 -63 0
-18 -78 0
-18 -93 0
-18 -108 0
-18 -123 0
-18 -138 0
-33 -48 0
-33 -63 0
-33 -78 0
-33 -93 0
-33 -108 0
-33 -123 0
-33 -138 0
-48 -63 0
-48 -78 0
-48 -93 0
-48 -108 0
-48 -123 0
-48 -138 0
-63 -78 0
-63 -93 0
-63 -108 0
-63 -123 0
-63 -138 0
-78 -93 0
-78 -108 0
-78 -123 0
-78 -138 0
-93 -108 0
-93 -123 0
-93 -138 0
-108 -123 0
-108 -138 0
-123 -138 0
-4 -19 0
-4 -34 0
-4 -49 0
-4 -64 0
-4 -79 0
-4 -94 0
-4 -109 0
-4 -124 0
-4 -139 0
-19 -34 0
-19 -49 0
-19 -64 0
-19 -79 0
-19 -94 0
-19 -109 0
-19 -124 0
-19 -139 0
-34 -49 0
-34 -64 0
-34 -79 0
-34 -94 0
-34 -109 0
-34 -124 0
-34 -139 0
-49 -64 0
-49 -79 0
-49 -94 0
-49 -109 0
-49 -124 0
-49 -139 0
-64 -79 0
-64 -94 0
-64 -109 0
-64 -124 0
-64 -139 0
-79 -94 0
-79 -109 0
-79 -124 0
-79 -139 0
-94 -109 0
-94 -124 0
-94 -139 0
-109 -124 0
-109 -139 0
-124 -139 0
-5 -20 0
-5 -35 0
-5 -50 0
-5 -65 0
-5 -80 0
-5 -95 0
-5 -110 0
-5 -125 0
-5 -140 0
-20 -35 0
-20 -50 0
-20 -65 0
-20 -80 0
-20 -95 0
-20 -110 0
-20 -125 0
-20 -140 0
-35 -50 0
-35 -65 0
-35 -80 0
-35 -95 0
-35 -110 0
-35 -125 0
-35 -140 0
-50 -65 0
-50 -80 0
-50 -95 0
-50 -110 0
-50 -125 0
-50 -140 0
-65 -80 0
-65 -95 0
-65 -110 0
-65 -125 0
-65 -140 0
-80 -95 0
-80 -110 0
-80 -125 0
-80 -140 0
-95 -110 0
-95 -125 0
-95 -140 0
-110 -125 0
-110 -140 0
-125 -140 0
-6 -21 0
-6 -36 0
-6 -51 0
-6 -66 0
-6 -81 0
-6 -96 0
-6 -111 0
-6 -126 0
-6 -141 0
-21 -36 0
-21 -51 0
-21 -66 0
-21 -81 0
-21 -96 0
-21 -111 0
-21 -126 0
-21 -141 0
-36 -51 0
-36 -66 0
-36 -81 0
-36 -96 0
-36 -111 0
-36 -126 0
-36 -141 0
-51 -66 0
-51 -81 0
-51 -96 0
-51 -111 0
-51 -126 0
-51 -141 0
-66 -81 0
-66 -96 0
-66 -111 0
-66 -126 0
-66 -141 0
-81 -96 0
-81 -111 0
-81 -126 0
-81 -141 0
-96 -111 0
-96 -126 0
-96 -141 0
-111 -126 0
-111 -141 0
-126 -141 0
-7 -22 0
-7 -37 0
-7 -52 0
-7 -67 0
-7 -82 0
-7 -97 0
-7 -112 0
-7 -127 0
-7 -142 0
-22 -37 0
-22 -52 0
-22 -67 0
-22 -82 0
-22 -97 0
-22 -112 0
-22 -127 0
-22 -142 0
-37 -52 0
-37 -67 0
-37 -82 0
-37 -97 0
-37 -112 0
-37 -127 0
-37 -142 0
-52 -67 0
-52 -82 0
-52 -97 0
-52 -112 0
-52 -127 0
-52 -142 0
-67 -82 0
-67 -97 0
-67 -112 0
-67 -127 0
-67 -142 0
-82 -97 0
-82 -112 0
-82 -127 0
-82 -142 0
-97 -112 0
-97 -127 0
-97 -142 0
-112 -127 0
-112 -142 0
-127 -142 0
-8 -23 0
-8 -38 0
-8 -53 0
-8 -68 0
-8 -83 0
-8 -98 0
-8 -113 0
-8 -128 0
-8 -143 0
-23 -38 0
-23 -53 0
-23 -68 0
-23 -83 0
-23 -98 0
-23 -113 0
-23 -128 0
-23 -143 0
-38 -53 0
-38 -68 0
-38 -83 0
-38 -98 0
-38 -113 0
-38 -128 0
-38 -143 0
-53 -68 0
-53 -83 0
-53 -98 0
-53 -113 0
-53 -128 0
-53 -143 0
-68 -83 0
-68 -98 0
-68 -113 0
-68 -128 0
-68 -143 0
-83 -98 0
-83 -113 0
-83 -128 0
-83 -143 0
-98 -113 0
-98 -128 0
-98 -143 0
-113 -128 0
-113 -143 0
-128 -143 0
-9 -24 0
-9 -39 0
-9 -54 0
-9 -69 0
-9 -84 0
-9 -99 0
-9 -114 0
-9 -129 0
-9 -144 0
-24 -39 0
-24 -54 0
-24 -69 0
-24 -84 0
-24 -99 0
-24 -114 0
-24 -129 0
-24 -144 0
-39 -54 0
-39 -69 0
-39 -84 0
-39 -99 0
-39 -114 0
-39 -129 0
-39 -144 0
-54 -69 0
-54 -84 0
-54 -99 0
-54 -114 0
-54 -129 0
-54 -144 0
-69 -84 0
-69 -99 0
-69 -114 0
-69 -129 0
-69 -144 0
-84 -99 0
-84 -114 0
-84 -129 0
-84 -144 0
-99 -114 0
-99 -129 0
-99 -144 0
-114 -129 0
-114 -144 0
-129 -144 0
-10 -25 0
-10 -40 0
-10 -55 0
-10 -70 0
-10 -85 0
-10 -100 0
-10 -115 0
-10 -130 0
-10 -145 0
-25 -40 0
-25 -55 0
-25 -70 0
-25 -85 0
-25 -100 0
-25 -115 0
-25 -130 0
-25 -145 0
-40 -55 0
-40 -70 0
-40 -85 0
-40 -100 0
-40 -115 0
-40 -130 0
-40 -145 0
-55 -70 0
-55 -85 0
-55 -100 0
-55 -115 0
-55 -130 0
-55 -145 0
-70 -85 0
-70 -100 0
-70 -115 0
-70 -130 0
-70 -145 0
-85 -100 0
-85 -115 0
-85 -130 0
-85 -145 0
-100 -115 0
-100 -130 0
-100 -145 0
-115 -130 0
-115 -145 0
-130 -145 0
-11 -26 0
-11 -41 0
-11 -56 0
-11 -71 0
-11 -86 0
-11 -101 0
-11 -116 0
-11 -131 0
-11 -146 0
-26 -41 0
-26 -56 0
-26 -71 0
-26 -86 0
-26 -101 0
-26 -116 0
-26 -131 0
-26 -146 0
-41 -56 0
-41 -71 0
-41 -86 0
-41 -101 0
-41 -116 0
-41 -131 0
-41 -146 0
-56 -71 0
-56 -86 0
-56 -101 0
-56 -116 0
-56 -131 0
-56 -146 0
-71 -86 0
-71 -101 0
-71 -116 0
-71 -131 0
-71 -146 0
-86 -101 0
-86 -116 0
-86 -131 0
-86 -146 0
-101 -116 0
-101 -131 0
-101 -146 0
-116 -131 0
-116 -146 0
-131 -146 0
-12 -27 0
-12 -42 0
-12 -57 0
-12 -72 0
-12 -87 0
-12 -102 0
-12 -117 0
-12 -132 0
-12 -147 0
-27 -42 0
-27 -57 0
-27 -72 0
-27 -87 0
-27 -102 0
-27 -117 0
-27 -132 0
-27 -147 0
-42 -57 0
-42 -72 0
-42 -87 0
-42 -102 0
-42 -117 0
-42 -132 0
-42 -147 0
-57 -72 0
-57 -87 0
-57 -102 0
-57 -117 0
-57 -132 0
-57 -147 0
-72 -87 0
-72 -102 0
-72 -117 0
-72 -132 0
-72 -147 0
-87 -102 0
-87 -117 0
-87 -132 0
-87 -147 0
-102 -117 0
-102 -132 0
-102 -147 0
-117 -132 0
-117 -147 0
-132 -147 0
-13 -28 0
-13 -43 0
-13 -58 0
-13 -73 0
-13 -88 0
-13 -103 0
-13 -118 0
-13 -133 0
-13 -148 0
-28 -43 0
-28 -58 0
-28 -73 0
-28 -88 0
-28 -103 0
-28 -118 0
-28 -133 0
-28 -148 0
-43 -58 0
-43 -73 0
-43 -88 0
-43 -103 0
-43 -118 0
-43 -133 0
-43 -148 0
-58 -73 0
-58 -88 0
-58 -103 0
-58 -118 0
-58 -133 0
-58 -148 0
-73 -88 0
-73 -103 0
-73 -118 0
-73 -133 0
-73 -148 0
-88 -103 0
-88 -118 0
-88 -133 0
-88 -148 0
-103 -118 0
-103 -133 0
-103 -148 0
-118 -133 0
-118 -148 0
-133 -148 0
-14 -29 0
-14 -44 0
-14 -59 0
-14 -74 0
-14 -89 0
-14 -104 0
-14 -119 0
-14 -134 0
-14 -149 0
-29 -44 0
-29 -59 0
-29 -74 0
-29 -89 0
-29 -104 0
-29 -119 0
-29 -134 0
-29 -149 0
-44 -59 0
-44 -74 0
-44 -89 0
-44 -104 0
-44 -119 0
-44 -134 0
-44 -149 0
-59 -74 0
-59 -89 0
-59 -104 0
-59 -119 0
-59 -134 0
-59 -149 0
-74 -89 0
-74 -104 0
-74 -119 0
-74 -134 0
-74 -149 0
-89 -104 0
-89 -119 0
-89 -134 0
-89 -149 0
-104 -119 0
-104 -134 0
-104 -149 0
-119 -134 0
-119 -149 0
-134 -149 0
-15 -30 0
-15 -45 0
-15 -60 0
-15 -75 0
-15 -90 0
-15 -105 0
-15 -120 0
-15 -135 0
-15 -150 0
-30 -45 0
-30 -60 0
-30 -75 0
-30 -90 0
-30 -105 0
-30 -120 0
-30 -135 0
-30 -150 0
-45 -60 0
-45 -75 0
-45 -90 0
-45 -105 0
-45 -120 0
-45 -135 0
-45 -150 0
-60 -75 0
-60 -90 0
-60 -105 0
-60 -120 0
-60 -135 0
-60 -150 0
-75 -90 0
-75 -105 0
-75 -120 0
-75 -135 0
-75 -150 0
-90 -105 0
-90 -120 0
-90 -135 0
-90 -150 0
-105 -120 0
-105 -135 0
-105 -150 0
-120 -135 0
-120 -150 0
-135 -150 0
